* Problem:    p2m2p1m1p0n100-prescaled
* Class:      LP
* Rows:       1
* Columns:    101
* Non-zeros:  101
* Format:     Free MPS
*
NAME p2m2p1m1p0n100-prescaled
ROWS
 N R0000000
 E R0000001
COLUMNS
 c0 R0000000 14354 R0000001 14354
 c1 R0000000 14354 R0000001 14354
 c2 R0000000 14354 R0000001 14354
 c3 R0000000 14354 R0000001 14354
 c4 R0000000 14354 R0000001 14354
 c5 R0000000 14354 R0000001 14354
 c6 R0000000 14354 R0000001 14354
 c7 R0000000 14354 R0000001 14354
 c8 R0000000 14354 R0000001 14354
 c9 R0000000 14354 R0000001 14354
 c10 R0000000 14354 R0000001 14354
 c11 R0000000 14354 R0000001 14354
 c12 R0000000 14354 R0000001 14354
 c13 R0000000 14354 R0000001 14354
 c14 R0000000 14354 R0000001 14354
 c15 R0000000 14354 R0000001 14354
 c16 R0000000 14354 R0000001 14354
 c17 R0000000 14354 R0000001 14354
 c18 R0000000 14354 R0000001 14354
 c19 R0000000 14354 R0000001 14354
 c20 R0000000 14354 R0000001 14354
 c21 R0000000 14354 R0000001 14354
 c22 R0000000 14354 R0000001 14354
 c23 R0000000 14354 R0000001 14354
 c24 R0000000 14354 R0000001 14354
 c25 R0000000 14354 R0000001 14354
 c26 R0000000 14354 R0000001 14354
 c27 R0000000 14354 R0000001 14354
 c28 R0000000 14354 R0000001 14354
 c29 R0000000 14354 R0000001 14354
 c30 R0000000 14354 R0000001 14354
 c31 R0000000 14354 R0000001 14354
 c32 R0000000 14354 R0000001 14354
 c33 R0000000 14354 R0000001 14354
 c34 R0000000 14354 R0000001 14354
 c35 R0000000 14354 R0000001 14354
 c36 R0000000 14354 R0000001 14354
 c37 R0000000 14354 R0000001 14354
 c38 R0000000 14354 R0000001 14354
 c39 R0000000 14354 R0000001 14354
 c40 R0000000 14354 R0000001 14354
 c41 R0000000 14354 R0000001 14354
 c42 R0000000 14354 R0000001 14354
 c43 R0000000 14354 R0000001 14354
 c44 R0000000 14354 R0000001 14354
 c45 R0000000 14354 R0000001 14354
 c46 R0000000 14354 R0000001 14354
 c47 R0000000 14354 R0000001 14354
 c48 R0000000 14354 R0000001 14354
 c49 R0000000 14354 R0000001 14354
 c50 R0000000 14354 R0000001 14354
 c51 R0000000 14354 R0000001 14354
 c52 R0000000 14354 R0000001 14354
 c53 R0000000 14354 R0000001 14354
 c54 R0000000 14354 R0000001 14354
 c55 R0000000 14354 R0000001 14354
 c56 R0000000 14354 R0000001 14354
 c57 R0000000 14354 R0000001 14354
 c58 R0000000 14354 R0000001 14354
 c59 R0000000 14354 R0000001 14354
 c60 R0000000 14354 R0000001 14354
 c61 R0000000 14354 R0000001 14354
 c62 R0000000 14354 R0000001 14354
 c63 R0000000 14354 R0000001 14354
 c64 R0000000 14354 R0000001 14354
 c65 R0000000 14354 R0000001 14354
 c66 R0000000 14354 R0000001 14354
 c67 R0000000 14354 R0000001 14354
 c68 R0000000 14354 R0000001 14354
 c69 R0000000 14354 R0000001 14354
 c70 R0000000 14354 R0000001 14354
 c71 R0000000 14354 R0000001 14354
 c72 R0000000 14354 R0000001 14354
 c73 R0000000 14354 R0000001 14354
 c74 R0000000 14354 R0000001 14354
 c75 R0000000 14354 R0000001 14354
 c76 R0000000 14354 R0000001 14354
 c77 R0000000 14354 R0000001 14354
 c78 R0000000 14354 R0000001 14354
 c79 R0000000 14354 R0000001 14354
 c80 R0000000 14354 R0000001 14354
 c81 R0000000 14354 R0000001 14354
 c82 R0000000 14354 R0000001 14354
 c83 R0000000 14354 R0000001 14354
 c84 R0000000 14354 R0000001 14354
 c85 R0000000 14354 R0000001 14354
 c86 R0000000 14354 R0000001 14354
 c87 R0000000 14354 R0000001 14354
 c88 R0000000 14354 R0000001 14354
 c89 R0000000 14354 R0000001 14354
 c90 R0000000 14354 R0000001 14354
 c91 R0000000 14354 R0000001 14354
 c92 R0000000 14354 R0000001 14354
 c93 R0000000 14354 R0000001 14354
 c94 R0000000 14354 R0000001 14354
 c95 R0000000 14354 R0000001 14354
 c96 R0000000 14354 R0000001 14354
 c97 R0000000 14354 R0000001 14354
 c98 R0000000 14354 R0000001 14354
 c99 R0000000 14354 R0000001 14354
 c100 R0000001 -14354
RHS
 RHS1 R0000001 80424
BOUNDS
 UP BND1 c0 0.457503135
 UP BND1 c1 0.457224467
 UP BND1 c2 0.999930333
 UP BND1 c3 0.7757419535
 UP BND1 c4 0.4571548001
 UP BND1 c5 0.6816915146
 UP BND1 c6 0.5694579908
 UP BND1 c7 0.457224467
 UP BND1 c8 0.8876271423
 UP BND1 c9 0.5695973248
 UP BND1 c10 0.8875574753
 UP BND1 c11 0.7758116205
 UP BND1 c12 0.8878361432
 UP BND1 c13 0.5695973248
 UP BND1 c14 0.6815521806
 UP BND1 c15 0.8876968093
 UP BND1 c16 0.7757419535
 UP BND1 c17 0.8879058102
 UP BND1 c18 0.999860666
 UP BND1 c19 0.6814825136
 UP BND1 c20 0.457363801
 UP BND1 c21 0.7758116205
 UP BND1 c22 0.457224467
 UP BND1 c23 0.8877664762
 UP BND1 c24 0.999721332
 UP BND1 c25 0.7756722865
 UP BND1 c26 0.5695973248
 UP BND1 c27 0.8875574753
 UP BND1 c28 0.457224467
 UP BND1 c29 0.6814825136
 UP BND1 c30 0.8877664762
 UP BND1 c31 0.999860666
 UP BND1 c32 0.8876271423
 UP BND1 c33 0.457433468
 UP BND1 c34 0.8877664762
 UP BND1 c35 0.457294134
 UP BND1 c36 0.6816915146
 UP BND1 c37 0.6814825136
 UP BND1 c38 0.8876271423
 UP BND1 c39 0.6814825136
 UP BND1 c40 0.999721332
 UP BND1 c41 0.7756026195
 UP BND1 c42 0.4571548001
 UP BND1 c43 0.7757419535
 UP BND1 c44 0.5695973248
 UP BND1 c45 0.6814128466
 UP BND1 c46 0.4571548001
 UP BND1 c47 0.7757419535
 UP BND1 c48 0.5695276578
 UP BND1 c49 0.8879058102
 UP BND1 c50 0.7756026195
 UP BND1 c51 0.457433468
 UP BND1 c52 0.7757419535
 UP BND1 c53 0.7755329525
 UP BND1 c54 0.8877664762
 UP BND1 c55 0.8877664762
 UP BND1 c56 0.999651665
 UP BND1 c57 0.6816218476
 UP BND1 c58 0.8875574753
 UP BND1 c59 0.6815521806
 UP BND1 c60 0.5694579908
 UP BND1 c61 0.6816915146
 UP BND1 c62 0.457503135
 UP BND1 c63 0.5695973248
 UP BND1 c64 0.5695276578
 UP BND1 c65 0.5694579908
 UP BND1 c66 0.5694579908
 UP BND1 c67 0.457294134
 UP BND1 c68 0.7757419535
 UP BND1 c69 0.457294134
 UP BND1 c70 0.6814128466
 UP BND1 c71 0.457363801
 UP BND1 c72 0.8875574753
 UP BND1 c73 0.999930333
 UP BND1 c74 0.5695973248
 UP BND1 c75 0.7755329525
 UP BND1 c76 0.999721332
 UP BND1 c77 0.5693186568
 UP BND1 c78 0.999930333
 UP BND1 c79 0.5695276578
 UP BND1 c80 0.5692489898
 UP BND1 c81 0.999930333
 UP BND1 c82 0.6815521806
 UP BND1 c83 0.5695276578
 UP BND1 c84 0.457503135
 UP BND1 c85 0.5693883238
 UP BND1 c86 0.6815521806
 UP BND1 c87 0.457294134
 UP BND1 c88 0.6814128466
 UP BND1 c89 0.8876968093
 UP BND1 c90 0.999930333
 UP BND1 c91 0.7756026195
 UP BND1 c92 0.6815521806
 UP BND1 c93 0.7755329525
 UP BND1 c94 0.8877664762
 UP BND1 c95 0.8877664762
 UP BND1 c96 0.8875574753
 UP BND1 c97 0.6814825136
 UP BND1 c98 0.6814825136
 UP BND1 c99 1
 UP BND1 c100 6.9666992E-5
ENDATA
